nK = 890;
nT = 4;
nI = 7;
L = 29;
TT = 196;
np = 1;
nc = 3;
b = [27, 56, 67, 57, 63, 37, 66];
d = [136, 89, 150, 119, 120, 71, 129];
m = [2.3, 1.4, 2.1, 1.5, 1.7, 2.4, 2.5];
pt = [0.35, 0.21, 0.27, 0.34];
st = [17.5, 9.03, 15.66, 17.34];
arc = {<1, 0, 1, 1, 0, 0, 0, [1, 1, 1, 1]>, <2, 1, 2, 1, 0, 0, 0, [1, 1, 1, 1]>, <3, 2, 3, 1, 0, 0, 0, [1, 1, 1, 1]>, <4, 3, 4, 1, 0, 0, 0, [1, 1, 1, 1]>, <5, 4, 5, 1, 0, 0, 0, [1, 1, 1, 1]>, <6, 5, 6, 1, 0, 0, 0, [1, 1, 1, 1]>, <7, 6, 7, 1, 0, 0, 0, [1, 1, 1, 1]>, <8, 7, 8, 1, 0, 0, 0, [1, 1, 1, 1]>, <9, 8, 9, 1, 0, 0, 0, [1, 1, 1, 1]>, <10, 9, 10, 1, 0, 0, 0, [1, 1, 1, 1]>, <11, 10, 11, 1, 0, 0, 0, [1, 1, 1, 1]>, <12, 11, 12, 1, 0, 0, 0, [1, 1, 1, 1]>, <13, 12, 13, 1, 0, 0, 0, [1, 1, 1, 1]>, <14, 13, 14, 1, 0, 0, 0, [1, 1, 1, 1]>, <15, 14, 15, 1, 0, 0, 0, [1, 1, 1, 1]>, <16, 15, 16, 1, 0, 0, 0, [1, 1, 1, 1]>, <17, 16, 17, 1, 0, 0, 0, [1, 1, 1, 1]>, <18, 17, 18, 1, 0, 0, 0, [1, 1, 1, 1]>, <19, 18, 19, 1, 0, 0, 0, [1, 1, 1, 1]>, <20, 19, 20, 1, 0, 0, 0, [1, 1, 1, 1]>, <21, 20, 21, 1, 0, 0, 0, [1, 1, 1, 1]>, <22, 21, 22, 1, 0, 0, 0, [1, 1, 1, 1]>, <23, 22, 23, 1, 0, 0, 0, [1, 1, 1, 1]>, <24, 23, 24, 1, 0, 0, 0, [1, 1, 1, 1]>, <25, 24, 25, 1, 0, 0, 0, [1, 1, 1, 1]>, <26, 25, 26, 1, 0, 0, 0, [1, 1, 1, 1]>, <27, 26, 27, 1, 0, 0, 0, [1, 1, 1, 1]>, <28, 27, 28, 1, 0, 0, 0, [1, 1, 1, 1]>, <29, 28, 29, 1, 0, 0, 0, [1, 1, 1, 1]>, <30, 0, 15, 15, 1, 0, 1, [0, 1, 1, 1]>, <31, 1, 16, 15, 1, 0, 1, [0, 1, 1, 1]>, <32, 2, 17, 15, 1, 0, 1, [0, 1, 1, 1]>, <33, 3, 18, 15, 1, 0, 1, [0, 1, 1, 1]>, <34, 4, 19, 15, 1, 0, 1, [0, 1, 1, 1]>, <35, 5, 20, 15, 1, 0, 1, [0, 1, 1, 1]>, <36, 6, 21, 15, 1, 0, 1, [0, 1, 1, 1]>, <37, 7, 22, 15, 1, 0, 1, [0, 1, 1, 1]>, <38, 8, 23, 15, 1, 0, 1, [0, 1, 1, 1]>, <39, 9, 24, 15, 1, 0, 1, [0, 1, 1, 1]>, <40, 10, 25, 15, 1, 0, 1, [0, 1, 1, 1]>, <41, 11, 26, 15, 1, 0, 1, [0, 1, 1, 1]>, <42, 12, 27, 15, 1, 0, 1, [0, 1, 1, 1]>, <43, 13, 28, 15, 1, 0, 1, [0, 1, 1, 1]>, <44, 14, 29, 15, 1, 0, 1, [0, 1, 1, 1]>, <45, 2, 12, 10, 2, 0, 0, [1, 1, 1, 0]>, <46, 3, 13, 10, 2, 0, 0, [1, 1, 1, 0]>, <47, 4, 14, 10, 2, 0, 0, [1, 1, 1, 0]>, <48, 5, 15, 10, 2, 0, 0, [1, 1, 1, 0]>, <49, 10, 20, 10, 2, 0, 0, [1, 1, 1, 0]>, <50, 11, 21, 10, 2, 0, 0, [1, 1, 1, 0]>, <51, 12, 22, 10, 2, 0, 0, [1, 1, 1, 0]>, <52, 14, 24, 10, 2, 0, 0, [1, 1, 1, 0]>, <53, 15, 25, 10, 2, 0, 0, [1, 1, 1, 0]>, <54, 16, 26, 10, 2, 0, 0, [1, 1, 1, 0]>, <55, 17, 27, 10, 2, 0, 0, [1, 1, 1, 0]>, <56, 18, 28, 10, 2, 0, 0, [1, 1, 1, 0]>, <57, 19, 29, 10, 2, 0, 0, [1, 1, 1, 0]>, <58, 0, 12, 12, 3, 0, 0, [1, 1, 1, 0]>, <59, 1, 13, 12, 3, 0, 0, [1, 1, 1, 0]>, <60, 2, 14, 12, 3, 0, 0, [1, 1, 1, 0]>, <61, 3, 15, 12, 3, 0, 0, [1, 1, 1, 0]>, <62, 4, 16, 12, 3, 0, 0, [1, 1, 1, 0]>, <63, 5, 17, 12, 3, 0, 0, [1, 1, 1, 0]>, <64, 8, 20, 12, 3, 0, 0, [1, 1, 1, 0]>, <65, 9, 21, 12, 3, 0, 0, [1, 1, 1, 0]>, <66, 10, 22, 12, 3, 0, 0, [1, 1, 1, 0]>, <67, 11, 23, 12, 3, 0, 0, [1, 1, 1, 0]>, <68, 12, 24, 12, 3, 0, 0, [1, 1, 1, 0]>, <69, 13, 25, 12, 3, 0, 0, [1, 1, 1, 0]>, <70, 14, 26, 12, 3, 0, 0, [1, 1, 1, 0]>, <71, 15, 27, 12, 3, 0, 0, [1, 1, 1, 0]>, <72, 16, 28, 12, 3, 0, 0, [1, 1, 1, 0]>, <73, 17, 29, 12, 3, 0, 0, [1, 1, 1, 0]>, <74, 0, 12, 12, 4, 0, 0, [1, 1, 0, 1]>, <75, 1, 13, 12, 4, 0, 0, [1, 1, 0, 1]>, <76, 2, 14, 12, 4, 0, 0, [1, 1, 0, 1]>, <77, 3, 15, 12, 4, 0, 0, [1, 1, 0, 1]>, <78, 4, 16, 12, 4, 0, 0, [1, 1, 0, 1]>, <79, 5, 17, 12, 4, 0, 0, [1, 1, 0, 1]>, <80, 8, 20, 12, 4, 0, 0, [1, 1, 0, 1]>, <81, 9, 21, 12, 4, 0, 0, [1, 1, 0, 1]>, <82, 10, 22, 12, 4, 0, 0, [1, 1, 0, 1]>, <83, 11, 23, 12, 4, 0, 0, [1, 1, 0, 1]>, <84, 12, 24, 12, 4, 0, 0, [1, 1, 0, 1]>, <85, 13, 25, 12, 4, 0, 0, [1, 1, 0, 1]>, <86, 14, 26, 12, 4, 0, 0, [1, 1, 0, 1]>, <87, 15, 27, 12, 4, 0, 0, [1, 1, 0, 1]>, <88, 16, 28, 12, 4, 0, 0, [1, 1, 0, 1]>, <89, 17, 29, 12, 4, 0, 0, [1, 1, 0, 1]>, <90, 0, 12, 12, 5, 1, 0, [1, 0, 1, 1]>, <91, 1, 13, 12, 5, 1, 0, [1, 0, 1, 1]>, <92, 2, 14, 12, 5, 1, 0, [1, 0, 1, 1]>, <93, 3, 15, 12, 5, 1, 0, [1, 0, 1, 1]>, <94, 4, 16, 12, 5, 1, 0, [1, 0, 1, 1]>, <95, 5, 17, 12, 5, 1, 0, [1, 0, 1, 1]>, <96, 8, 20, 12, 5, 1, 0, [1, 0, 1, 1]>, <97, 9, 21, 12, 5, 1, 0, [1, 0, 1, 1]>, <98, 10, 22, 12, 5, 1, 0, [1, 0, 1, 1]>, <99, 11, 23, 12, 5, 1, 0, [1, 0, 1, 1]>, <100, 12, 24, 12, 5, 1, 0, [1, 0, 1, 1]>, <101, 13, 25, 12, 5, 1, 0, [1, 0, 1, 1]>, <102, 14, 26, 12, 5, 1, 0, [1, 0, 1, 1]>, <103, 15, 27, 12, 5, 1, 0, [1, 0, 1, 1]>, <104, 16, 28, 12, 5, 1, 0, [1, 0, 1, 1]>, <105, 17, 29, 12, 5, 1, 0, [1, 0, 1, 1]>, <106, 0, 14, 14, 6, 0, 1, [1, 0, 1, 1]>, <107, 1, 15, 14, 6, 0, 1, [1, 0, 1, 1]>, <108, 2, 16, 14, 6, 0, 1, [1, 0, 1, 1]>, <109, 3, 17, 14, 6, 0, 1, [1, 0, 1, 1]>, <110, 4, 18, 14, 6, 0, 1, [1, 0, 1, 1]>, <111, 5, 19, 14, 6, 0, 1, [1, 0, 1, 1]>, <112, 6, 20, 14, 6, 0, 1, [1, 0, 1, 1]>, <113, 7, 21, 14, 6, 0, 1, [1, 0, 1, 1]>, <114, 8, 22, 14, 6, 0, 1, [1, 0, 1, 1]>, <115, 9, 23, 14, 6, 0, 1, [1, 0, 1, 1]>, <116, 10, 24, 14, 6, 0, 1, [1, 0, 1, 1]>, <117, 11, 25, 14, 6, 0, 1, [1, 0, 1, 1]>, <118, 12, 26, 14, 6, 0, 1, [1, 0, 1, 1]>, <119, 13, 27, 14, 6, 0, 1, [1, 0, 1, 1]>, <120, 14, 28, 14, 6, 0, 1, [1, 0, 1, 1]>, <121, 15, 29, 14, 6, 0, 1, [1, 0, 1, 1]>, <122, 0, 13, 13, 7, 0, 1, [0, 1, 1, 1]>, <123, 1, 14, 13, 7, 0, 1, [0, 1, 1, 1]>, <124, 2, 15, 13, 7, 0, 1, [0, 1, 1, 1]>, <125, 3, 16, 13, 7, 0, 1, [0, 1, 1, 1]>, <126, 4, 17, 13, 7, 0, 1, [0, 1, 1, 1]>, <127, 5, 18, 13, 7, 0, 1, [0, 1, 1, 1]>, <128, 7, 20, 13, 7, 0, 1, [0, 1, 1, 1]>, <129, 8, 21, 13, 7, 0, 1, [0, 1, 1, 1]>, <130, 9, 22, 13, 7, 0, 1, [0, 1, 1, 1]>, <131, 10, 23, 13, 7, 0, 1, [0, 1, 1, 1]>, <132, 11, 24, 13, 7, 0, 1, [0, 1, 1, 1]>, <133, 12, 25, 13, 7, 0, 1, [0, 1, 1, 1]>, <134, 13, 26, 13, 7, 0, 1, [0, 1, 1, 1]>, <135, 14, 27, 13, 7, 0, 1, [0, 1, 1, 1]>, <136, 15, 28, 13, 7, 0, 1, [0, 1, 1, 1]>, <137, 16, 29, 13, 7, 0, 1, [0, 1, 1, 1]>};
